c --- [ banner ] -------------------------------------------------------------
c 
c CaDiCaL Radically Simplified CDCL SAT Solver
c Copyright (c) 2016-2021 A. Biere, M. Fleury, N. Froleyks
c 
c Version 1.5.2 9c38a080b32c28d805e8e6ca21849856b0cda605
c g++ (Ubuntu 7.5.0-3ubuntu1~18.04) 7.5.0 -Wall -Wextra -O3 -DNDEBUG
c Wed Feb 16 23:15:36 EST 2022 Linux fac-vanhoeve01 5.4.0-99-generic x86_64
c 
c --- [ limit ] --------------------------------------------------------------
c 
c setting time limit to 600 seconds real time (due to '-t 600')
c setting conflict limit to 1000000000 conflicts (due to '1000000000')
c 
c --- [ parsing input ] ------------------------------------------------------
c 
c reading DIMACS file from 'ddfwcnfs/wap07a.col_40.cnf'
c opening file to read 'ddfwcnfs/wap07a.col_40.cnf'
c found 'p cnf 72360 3903769' header
c parsed 3903769 clauses in 2.11 seconds process time
c closing file 'ddfwcnfs/wap07a.col_40.cnf'
c after reading 62064102 bytes 59.2 MB
c 
c --- [ options ] ------------------------------------------------------------
c 
c all options are set to their default value
c 
c --- [ solving ] ------------------------------------------------------------
c 
c time measured in process time since initialization
c 
c  seconds   reductions  redundant   irredundant
c          MB    restarts       trail        variables
c           level   conflicts       glue          remaining
c 
c *  2.11 337  0 0   0    0    0  0% 0 3897796 70437 97%
c {  2.14 338  0 0   0    0    0  0% 0 3897796 70437 97%
c -  2.79 339 36 1   9  300  237 13% 25 3864379 70437 97%
c }  2.91 339 34 1  57 1001  621 12% 28 3864379 70437 97%
c [  2.91 339  0 1  57 1001  621  0% 0 3864379 70437 97%
c O  2.91 339 38 1  57 1002  622  4% 38 3864379 70437 97%
c -  4.57 427 41 2  57 1852  863  5% 38 3864379 70437 97%
c ]  4.66 427 45 2  58 3003 1804  5% 41 3864379 70437 97%
c {  4.66 427 34 2  58 3003 1804 12% 28 3864379 70437 97%
c F  4.66 427 34 2  58 3004 1805 12% 28 3864379 70437 97%
c -  5.93 428 69 3 337 4180 1618 12% 32 3864379 70437 97%
c #  8.85 426 55 3 561 6005 2370 12% 34 3864379 70437 97%
c }  8.94 426 53 3 578 7003 3006 12% 35 3864379 70437 97%
c [  8.94 426 45 3 578 7003 3006  5% 41 3864379 70437 97%
c - 10.14 426 47 4 579 7284 2028  5% 41 3864379 70437 97%
c I 10.36 426 54 4 580 10007 3956  5% 41 3864379 70437 97%
c - 11.63 426 586 5 581 11164 3340  8% 40 3864379 70437 97%
c s 12.83 441 911 5 582 11581 3519 10% 42 3864379 70437 97%
c e 19.64 441 911 5 582 11581  421 10% 42 3268041 64185 89%
c s 20.84 463 911 5 582 11581  420 10% 42 3268041 64185 89%
c 
c  seconds    reductions   redundant    irredundant
c          MB     restarts        trail         variables
c            level    conflicts       glue           remaining
c 
c ^ 21.45 463 911 5 582 11581  420 10% 42 3268041 64185 89%
c ] 26.27 451 960 5 583 15003 3198 38% 53 3268041 64185 89%
c { 26.27 451 53 5 583 15003 3198 14% 35 3268041 64185 89%
c B 26.28 451 54 5 585 15008 3203 14% 35 3268041 64185 89%
c - 27.53 452 62 6 616 15821 3652 13% 34 3268041 64185 89%
c W 29.02 452 51 6 616 21010 7525  9% 29 3268041 64185 89%
c - 30.09 452 53 7 634 21104 4970  9% 29 3268041 64185 89%
c - 31.60 452 47 8 2168 27138 3121  8% 31 3268041 64185 89%
c F 31.67 452 47 8 2363 28012 3390  8% 32 3268041 64185 89%
c } 34.59 452 45 8 2463 31003 5103  9% 32 3268041 64185 89%
c [ 34.59 452 960 8 2463 31003 5103 38% 53 3268041 64185 89%
c - 35.97 453 769 9 2464 33927 5384 32% 57 3268041 64185 89%
c s 36.12 453 751 9 2464 34266 5657 32% 58 3268041 64185 89%
c s 41.14 453 751 9 2464 34266 5654 32% 58 3268041 64185 89%
c ^ 41.68 453 751 9 2464 34266 5654 32% 58 3268041 64185 89%
c B 41.87 453 666 9 2466 36013 7126 28% 57 3268041 64185 89%
c - 44.15 455 647 10 2469 41469 7975 26% 77 3268041 64185 89%
c W 46.14 455 566 10 2470 45014 10773 24% 82 3268041 64185 89%
c - 47.75 455 485 11 2471 49767 8649 21% 84 3268041 64185 89%
c O 51.08 455 423 11 2472 55016 12715 19% 84 3268041 64185 89%
c 
c  seconds    reductions     redundant    irredundant
c          MB      restarts         trail         variables
c            level      conflicts       glue           remaining
c 
c - 52.44 454 378 12 2475 58819 9437 18% 79 3268041 64185 89%
c ] 52.80 454 338 12 2478 63003 12061 16% 74 3268041 64185 89%
c { 52.80 454 45 12 2478 63003 12061  9% 32 3268041 64185 89%
c B 53.05 454 47 12 2480 66017 14411  9% 32 3268041 64185 89%
c s 53.50 454 47 12 2982 68287 15073  9% 32 3268041 64185 89%
c s 58.69 454 47 12 2982 68287 14740  9% 32 3268041 64185 89%
c ^ 59.23 454 47 12 2982 68287 14740  9% 32 3268041 64185 89%
c - 60.36 453 47 13 2996 68628 8804  9% 32 3268041 64185 89%
c W 65.64 453 45 13 3662 78019 13021  9% 33 3268041 64185 89%
c - 67.01 453 47 14 3834 79190 7118  9% 34 3268041 64185 89%
c - 68.97 453 45 15 4456 90505 7717  9% 35 3268041 64185 89%
c # 69.02 453 45 15 4464 91025 7995  9% 35 3268041 64185 89%
c - 70.95 453 43 16 4484 102573 9410  9% 34 3268041 64185 89%
c B 73.92 453 42 16 4484 105026 10834  9% 34 3268041 64185 89%
c s 75.30 453 44 16 5218 113648 11558  9% 35 3268041 64185 89%
c s 80.51 453 44 16 5218 113648 10736  9% 35 3268041 64185 89%
c ^ 81.09 453 44 16 5218 113648 10736  9% 35 3268041 64185 89%
c - 82.34 453 44 17 5299 115396 7213  9% 35 3268041 64185 89%
c W 85.41 453 43 17 5459 120028 9218  9% 35 3268041 64185 89%
c } 86.03 453 43 17 5678 127005 12392  9% 35 3268041 64185 89%
c 
c  seconds    reductions       redundant    irredundant
c          MB      restarts           trail         variables
c            level      conflicts         glue           remaining
c 
c [ 86.03 453 338 17 5678 127005 12392 16% 74 3268041 64185 89%
c - 87.24 453 323 18 5678 128973 8734 16% 72 3268041 64185 89%
c B 87.90 453 276 18 5683 136029 13544 14% 67 3268041 64185 89%
c - 93.46 457 766 19 5686 143307 13693 18% 82 3268041 64185 89%
c W 98.86 457 729 19 5687 153030 21605 21% 89 3268041 64185 89%
c - 100.87 460 817 20 5687 158392 15401 21% 90 3268041 64185 89%
c s 103.18 460 897 20 5690 170351 23095 21% 95 3268041 64185 89%
c s 108.47 460 897 20 5690 170351 23087 21% 95 3268041 64185 89%
c ^ 109.03 460 897 20 5690 170351 23087 21% 95 3268041 64185 89%
c I 109.16 460 888 20 5690 171038 23608 20% 95 3268041 64185 89%
c - 110.87 459 1198 21 5693 174234 16212 21% 95 3268041 64185 89%
c B 115.38 459 955 21 5701 190039 28213 18% 88 3268041 64185 89%
c - 116.50 457 945 22 5701 190829 16792 18% 87 3268041 64185 89%
c - 119.78 457 757 23 5708 208177 18024 15% 80 3268041 64185 89%
c W 124.05 457 740 23 5709 210040 19396 15% 80 3268041 64185 89%
c - 129.99 456 611 24 5717 226279 19403 14% 73 3268041 64185 89%
c O 130.52 456 580 24 5717 231042 23128 13% 71 3268041 64185 89%
c s 131.21 456 531 24 5718 238393 27154 12% 67 3268041 64185 89%
c s 136.65 456 531 24 5718 238393 25627 12% 67 3268041 64185 89%
c - 138.80 454 490 25 5718 245137 16722 12% 64 3268041 64185 89%
c 
c  seconds     reductions       redundant    irredundant
c           MB      restarts           trail         variables
c             level      conflicts         glue           remaining
c 
c B 139.56 454 450 25 5719 253043 22362 11% 61 3268041 64185 89%
c ] 140.36 454 1059 25 5719 255006 24077 12% 68 3268041 64185 89%
c { 140.36 454 43 25 5719 255006 24077  9% 35 3268041 64185 89%
c - 142.34 457 44 26 5843 264749 18560  9% 35 3268041 64185 89%
c F 146.17 457 43 26 5923 276047 24846  8% 35 3268041 64185 89%
c - 148.00 454 42 27 5934 285116 17557  8% 35 3268041 64185 89%
c B 149.38 454 42 27 5993 300055 27448  8% 35 3268041 64185 89%
c - 151.16 455 43 28 6124 306238 18828  8% 35 3268041 64185 89%
c W 158.24 455 45 28 6302 325061 33026  8% 35 3268041 64185 89%
c - 159.64 456 46 29 6346 328112 21519  8% 35 3268041 64185 89%
c - 165.28 455 44 30 6388 350741 20131  8% 35 3268041 64185 89%
c # 165.32 455 44 30 6388 351062 20310  8% 35 3268041 64185 89%
c - 168.45 455 43 31 6437 374123 21583  8% 34 3268041 64185 89%
c B 168.79 455 43 31 6437 378064 24278  8% 34 3268041 64185 89%
c - 174.50 454 42 32 7554 398260 17583  8% 35 3268041 64185 89%
c W 181.61 454 41 32 7752 406065 21286  8% 35 3268041 64185 89%
c - 184.11 455 41 33 7940 423151 18768  8% 35 3268041 64185 89%
c F 185.10 455 40 33 7947 435066 25603  8% 34 3268041 64185 89%
c - 187.20 455 40 34 7956 448797 22653  8% 33 3268041 64185 89%
c B 191.62 455 39 34 7999 465068 33845  8% 33 3268041 64185 89%
c 
c  seconds    reductions        redundant    irredundant
c           MB      restarts           trail         variables
c            level       conflicts         glue           remaining
c 
c - 193.82 455 40 35 10112 475197 20828  8% 33 3268041 64185 89%
c W 202.83 455 39 35 12098 496072 28683  8% 34 3268041 64185 89%
c - 204.75 454 40 36 12642 502351 16014  8% 34 3268041 64185 89%
c } 205.51 454 40 36 13122 511007 20001  8% 35 3268041 64185 89%
c [ 205.51 454 1059 36 13122 511007 20001 12% 68 3268041 64185 89%
c W 217.72 454 958 36 13122 528073 31755 12% 65 3268041 64185 89%
c - 219.05 456 938 37 13122 530262 21715 12% 65 3268041 64185 89%
c - 223.23 458 799 38 13135 558925 26281 12% 62 3268041 64185 89%
c I 223.48 458 782 38 13136 561076 27811 12% 61 3268041 64185 89%
c - 230.09 466 1914 39 13147 588343 30654 16% 77 3268041 64185 89%
c B 231.28 466 1806 39 13151 595082 35869 16% 78 3268041 64185 89%
c - 240.30 468 3810 40 13153 618517 32376 20% 89 3268041 64185 89%
c W 251.80 468 4293 40 13159 630083 42115 22% 93 3268041 64185 89%
c - 255.47 465 3554 41 13168 649444 33820 21% 92 3268041 64185 89%
c s 255.65 465 3554 41 13168 649444 33371 21% 92 3268041 64185 89%
c w 258.38 465 3554 41 13168 649444 33358 21% 92 3268041 64185 89%
c O 261.34 465 3202 41 13175 666085 46587 21% 90 3268041 64185 89%
c - 266.91 461 2750 42 13183 681124 34890 19% 84 3268041 64185 89%
c B 269.25 461 2208 42 13184 703087 49411 17% 76 3268041 64185 89%
c - 271.96 460 2505 43 13185 713558 33673 19% 77 3268041 64185 89%
c 
c  seconds      reductions        redundant    irredundant
c           MB        restarts           trail         variables
c             level        conflicts         glue           remaining
c 
c W 286.67 460 2078 43 13186 741089 53692 23% 80 3268041 64185 89%
c - 288.50 462 1973 44 13186 746746 32947 23% 78 3268041 64185 89%
c I 295.47 462 1438 44 13186 780090 58607 20% 69 3268041 64185 89%
c - 297.13 462 1663 45 13186 780688 35107 21% 76 3268041 64185 89%
c - 321.93 538 8641 46 13193 815387 38991 30% 237 3268041 64185 89%
c B 322.67 538 8251 46 13196 820091 42681 29% 230 3268041 64185 89%
c - 328.34 464 6110 47 13209 850840 37791 24% 188 3268041 64185 89%
c W 344.63 464 5528 47 13215 861092 45602 23% 177 3268041 64185 89%
c - 351.05 469 5772 48 13217 887045 39746 24% 162 3268041 64185 89%
c O 353.79 469 5043 48 13227 903094 52847 24% 149 3268041 64185 89%
c - 357.25 463 4107 49 13235 924005 39908 21% 130 3268041 64185 89%
c B 360.10 463 3309 49 13247 946095 55789 19% 113 3268041 64185 89%
c - 368.63 468 3516 50 13248 961719 42414 21% 120 3268041 64185 89%
c W 387.00 468 2692 50 13249 990097 64276 21% 110 3268041 64185 89%
c - 389.51 466 3168 51 13249 1000188 41700 24% 106 3268041 64185 89%
c ] 393.67 466 2988 51 13262 1023007 59466 25% 106 3268041 64185 89%
c { 393.67 466 40 51 13262 1023007 59466  8% 35 3268041 64185 89%
c # 394.91 466 40 51 13545 1035101 65630  8% 35 3268041 64185 89%
c - 396.43 464 40 52 13549 1039411 38619  8% 35 3268041 64185 89%
c - 404.11 457 39 53 13672 1079390 33929  8% 35 3268041 64185 89%
c 
c  seconds    reductions         redundant    irredundant
c           MB      restarts            trail         variables
c            level        conflicts         glue           remaining
c 
c B 404.27 457 39 53 13672 1081103 34773  8% 35 3268041 64185 89%
c - 409.66 459 41 54 14110 1120122 39301  8% 35 3268041 64185 89%
c s 409.88 459 41 54 14110 1120122 39236  8% 35 3268041 64185 89%
c w 412.86 459 41 54 14110 1120122 39223  8% 35 3268041 64185 89%
c W 428.62 459 47 54 14300 1128105 45485  8% 35 3268041 64185 89%
c - 435.69 458 46 55 14732 1161608 36837  8% 35 3268041 64185 89%
c F 436.93 458 45 55 14833 1176106 44289  8% 35 3268041 64185 89%
c - 440.38 458 43 56 14902 1203849 37165  8% 34 3268041 64185 89%
c B 442.40 458 41 56 14966 1225107 52164  8% 34 3268041 64185 89%
c - 445.24 457 41 57 15533 1246845 35683  8% 34 3268041 64185 89%
c W 467.61 457 40 57 15900 1275112 50372  8% 34 3268041 64185 89%
c - 470.12 457 40 58 16078 1290595 32525  8% 34 3268041 64185 89%
c # 473.39 457 39 58 16422 1326114 50296  8% 35 3268041 64185 89%
c - 475.29 457 39 59 16453 1335099 32736  8% 35 3268041 64185 89%
c B 479.44 457 39 59 16855 1378115 59268  8% 35 3268041 64185 89%
c - 483.89 458 40 60 17392 1380357 36660  8% 35 3268041 64185 89%
c - 489.13 458 41 61 18186 1426370 38178  8% 35 3268041 64185 89%
c W 507.96 458 41 61 18203 1431118 41054  8% 35 3268041 64185 89%
c - 512.96 458 41 62 18670 1473137 38717  8% 35 3268041 64185 89%
c F 514.24 458 40 62 18781 1485119 45683  8% 35 3268041 64185 89%
c 
c  seconds    reductions         redundant    irredundant
c           MB      restarts            trail         variables
c            level        conflicts         glue           remaining
c 
c - 521.60 459 40 63 18875 1520657 42111  7% 35 3268041 64185 89%
c B 523.80 459 39 63 18925 1540120 54857  7% 34 3268041 64185 89%
c - 527.85 458 40 64 19754 1568932 39583  7% 35 3268041 64185 89%
c W 551.60 458 40 64 20241 1596121 53527  8% 35 3268041 64185 89%
c - 554.77 458 40 65 20502 1617961 35864  8% 36 3268041 64185 89%
c # 561.00 458 39 65 20881 1653123 55531  8% 36 3268041 64185 89%
c - 563.41 458 40 66 20975 1667746 37949  8% 36 3268041 64185 89%
c s 563.60 458 40 66 20975 1667746 37906  8% 36 3268041 64185 89%
c w 566.41 458 40 66 20975 1667746 37893  8% 36 3268041 64185 89%
c B 571.11 458 39 66 21063 1711124 64118  8% 36 3268041 64185 89%
c - 573.20 459 40 67 21216 1718283 42139  8% 36 3268041 64185 89%
c - 581.93 459 41 68 21805 1769577 40959  8% 37 3268041 64185 89%
c } 600.28 459 41 68 21820 1770124 41303  8% 37 3268041 64185 89%
c ? 600.28 459 41 68 21820 1770124 41303  8% 37 3268041 64185 89%
c 
c --- [ result ] -------------------------------------------------------------
c 
c UNKNOWN
c 
c --- [ run-time profiling ] -------------------------------------------------
c 
c process time taken by individual solving procedures
c (percentage relative to process time for solving)
c 
c       483.20   80.78% search
c       175.30   29.31% walk
c       161.58   27.01% stable
c       146.29   24.46% unstable
c       114.97   19.22% simplify
c        28.83    4.82% ternary
c        18.03    3.01% elim
c        16.95    2.83% vivify
c        15.63    2.61% probe
c         3.96    0.66% subsume
c         2.11    0.35% parse
c         0.03    0.00% lucky
c   =================================
c       598.17   99.65% solve
c 
c last line shows process time for solving
c (percentage relative to total process time)
c 
c --- [ statistics ] ---------------------------------------------------------
c 
c chronological:            302235        17.07 %  of conflicts
c conflicts:               1770124      2959.23    per second
c decisions:               2897464      4843.88    per second
c eliminated:                 6252         8.64 %  of all variables
c fixed:                      1923         2.66 %  of all variables
c learned:                 1751467        98.95 %  per conflict
c learned_lits:          229878522       100.00 %  learned literals
c minimized:                     0         0.00 %  learned literals
c shrunken:               89592691        38.97 %  learned literals
c minishrunken:            6228672         2.71 %  learned literals
c propagations:          668584904         1.12 M  per second
c reduced:                 1118039        63.16 %  per conflict
c rephased:                     59     30002.10    interval
c restarts:                  21820        81.12    interval
c stabilizing:                   5        38.53 %  of conflicts
c subsumed:                 588976         5.15 %  of all clauses
c strengthened:              16765         0.15 %  of all clauses
c vivified:                     70         0.00 %  of all clauses
c walked:                       19     93164.42    interval
c weakened:                 670291         2.73    average size
c 
c seconds are measured in process time for solving
c 
c --- [ resources ] ----------------------------------------------------------
c 
c total process time since initialization:       600.28    seconds
c total real time since initialization:          600.32    seconds
c maximum resident set size of process:          634.04    MB
c 
c --- [ shutting down ] ------------------------------------------------------
c 
c exit 0
